sat
(
(define-fun S () String "aaaabbbaaaabbbaaaabbbaaaabbbaaaabbbaaaabbbaaaabbbbbbaa")
(define-fun J () String "")
(define-fun H () String "")
(define-fun K () String "")
(define-fun R () String "")
(define-fun N () String "")
(define-fun M () String "aaaabbb")
(define-fun P () String "")
)
